2
1000 4
44
150 1 1
151 1 2
152 1 3
154 1 3
155 1 1
157 1 2
158 1 2
159 1 4
160 1 3
161 1 1
162 1 1
163 1 2
164 1 3
165 1 1
166 1 5
169 1 2
170 1 3
171 1 1
172 1 2
174 1 4
175 1 1
176 1 1
177 1 5
178 1 1
179 1 4
180 1 1
182 1 2
183 1 2
184 1 1
185 1 1
186 1 2
188 1 2
189 1 6
190 1 4
191 1 2
192 1 2
193 1 1
194 1 4
195 1 1
196 1 3
197 1 1
198 1 3
199 1 1
200 1 3
